Version identifier: 22.1.0.0 | 2022-03-09 | 1a383f8ce
CPXPARAM_Threads                                 1
CPXPARAM_MIP_Strategy_VariableSelect             3
CPXPARAM_TimeLimit                               599.99998626800004
1 of 1 MIP starts provided solutions.
MIP start 'm1' defined initial solution with objective 1.0000.
Tried aggregator 2 times.
MIP Presolve eliminated 37 rows and 1 columns.
MIP Presolve added 32 rows and 8 columns.
MIP Presolve modified 73 coefficients.
Aggregator did 8 substitutions.
Reduced MIP has 1213 rows, 5200 columns, and 76896 nonzeros.
Reduced MIP has 5200 binaries, 0 generals, 0 SOSs, and 0 indicators.
Presolve time = 0.11 sec. (133.11 ticks)
Probing time = 0.02 sec. (15.17 ticks)
Tried aggregator 1 time.
Detecting symmetries...
MIP Presolve modified 14 coefficients.
Reduced MIP has 1213 rows, 5200 columns, and 77272 nonzeros.
Reduced MIP has 5200 binaries, 0 generals, 0 SOSs, and 0 indicators.
Presolve time = 0.07 sec. (86.53 ticks)
Probing time = 0.02 sec. (15.22 ticks)
Clique table members: 800.
MIP emphasis: balance optimality and feasibility.
MIP search method: dynamic search.
Parallel mode: none, using 1 thread.
Root relaxation solution time = 0.90 sec. (1058.22 ticks)

        Nodes                                         Cuts/
   Node  Left     Objective  IInf  Best Integer    Best Bound    ItCnt     Gap

*     0+    0                            1.0000    20100.0000              --- 
      0     0      200.0000   837        1.0000      200.0000     4183     --- 
*     0+    0                           37.0000      200.0000           440.54%
      0     0      200.0000   168       37.0000    Cliques: 1     4497  440.54%
      0     0      200.0000   219       37.0000      Cuts: 75     6654  440.54%
      0     0      200.0000   191       37.0000      Cuts: 13     8327  440.54%
*     0+    0                          109.0000      200.0000            83.49%
*     0+    0                          134.0000      200.0000            49.25%
*     0+    0                          184.0000      200.0000             8.70%
      0     0        cutoff            184.0000      200.0000     8327    8.70%
      0     0      200.0000   400      184.0000      Cuts: 11    10243    8.70%
*     0+    0                          188.0000      200.0000             6.38%
*     0+    0                          193.0000      200.0000             3.63%
*     0+    0                          196.0000      200.0000             2.04%
Detecting symmetries...
      0     2      200.0000   132      196.0000      200.0000    10243    2.04%
Elapsed time = 20.24 sec. (21822.72 ticks, tree = 0.01 MB, solutions = 8)
      1     3      200.0000   166      196.0000      200.0000    15891    2.04%
      2     4      200.0000   133      196.0000      200.0000    18472    2.04%
      3     5      200.0000   326      196.0000      200.0000    22048    2.04%
      4     6      200.0000   149      196.0000      200.0000    23303    2.04%
      5     7      200.0000   319      196.0000      200.0000    27927    2.04%
      6     8      200.0000   150      196.0000      200.0000    32693    2.04%
      7     9      200.0000   454      196.0000      200.0000    36096    2.04%
      8    10      200.0000   163      196.0000      200.0000    36425    2.04%
      9    11      200.0000   335      196.0000      200.0000    40113    2.04%
     11    13      200.0000   502      196.0000      200.0000    44381    2.04%
Elapsed time = 30.19 sec. (32626.43 ticks, tree = 0.08 MB, solutions = 8)
     15    17      200.0000   599      196.0000      200.0000    45946    2.04%
     17    19      200.0000   504      196.0000      200.0000    49976    2.04%
     20    22      200.0000   327      196.0000      200.0000    51461    2.04%
     21    23      200.0000   327      196.0000      200.0000    56364    2.04%
     23    25      200.0000   341      196.0000      200.0000    63171    2.04%
     25    27      197.0000   332      196.0000      200.0000    66984    2.04%
     27    29      200.0000   185      196.0000      200.0000    69312    2.04%
     29    31      200.0000   214      196.0000      200.0000    73344    2.04%
     31    33      200.0000   322      196.0000      200.0000    76546    2.04%
     34    36      200.0000   191      196.0000      200.0000    78942    2.04%
Elapsed time = 42.67 sec. (45817.92 ticks, tree = 0.22 MB, solutions = 8)
     35    37      200.0000   230      196.0000      200.0000    82796    2.04%
     38    40      200.0000   191      196.0000      200.0000    84641    2.04%
     40    42      200.0000   177      196.0000      200.0000    87653    2.04%
     44    46      200.0000   158      196.0000      200.0000    90484    2.04%
     47    49      200.0000   147      196.0000      200.0000    92328    2.04%
     49    51      200.0000   312      196.0000      200.0000    95126    2.04%
     51    53      200.0000   143      196.0000      200.0000    97136    2.04%
     54    56      200.0000   162      196.0000      200.0000   100317    2.04%
     57    58      200.0000   124      196.0000      200.0000   103369    2.04%
     60    61      200.0000   249      196.0000      200.0000   106708    2.04%
Elapsed time = 56.80 sec. (59990.86 ticks, tree = 0.45 MB, solutions = 8)
     63    64      200.0000   224      196.0000      200.0000   108882    2.04%
     67    67      200.0000   219      196.0000      200.0000   111799    2.04%
     70    69      200.0000   172      196.0000      200.0000   114537    2.04%
     74    73      200.0000   287      196.0000      200.0000   118626    2.04%
     76    75      200.0000   352      196.0000      200.0000   122405    2.04%
     78    77      200.0000   318      196.0000      200.0000   127411    2.04%
     80    78      200.0000   240      196.0000      200.0000   133738    2.04%
     84    82      200.0000   247      196.0000      200.0000   136544    2.04%
     87    85      200.0000   205      196.0000      200.0000   140382    2.04%
     89    87      200.0000   246      196.0000      200.0000   144876    2.04%
Elapsed time = 69.00 sec. (72064.97 ticks, tree = 0.75 MB, solutions = 8)
     91    88      199.9725   339      196.0000      200.0000   150813    2.04%
     94    91      200.0000   276      196.0000      200.0000   158596    2.04%
     96    92      199.9630   321      196.0000      200.0000   164597    2.04%
    100    95      199.0000   277      196.0000      200.0000   170784    2.04%
    102    96      200.0000   119      196.0000      200.0000   176234    2.04%
    104    98      200.0000   203      196.0000      200.0000   180851    2.04%
    106   100      200.0000   183      196.0000      200.0000   186031    2.04%
    110   104      200.0000   183      196.0000      200.0000   190621    2.04%
    114   107      200.0000   116      196.0000      200.0000   196066    2.04%
    116   107      199.4896   261      196.0000      200.0000   204304    2.04%
Elapsed time = 81.99 sec. (84592.11 ticks, tree = 0.96 MB, solutions = 8)
    119   110      199.0000   241      196.0000      200.0000   208993    2.04%
    122   113      199.0000   161      196.0000      200.0000   212900    2.04%
    125   116      199.0000   136      196.0000      200.0000   217300    2.04%
    129   120      199.0000   164      196.0000      200.0000   222345    2.04%
    132   123      199.0000   105      196.0000      200.0000   228393    2.04%
    136   125      198.5909   271      196.0000      200.0000   236555    2.04%
    139   128      199.0000    88      196.0000      200.0000   241943    2.04%
    143   132      199.0000   104      196.0000      200.0000   247586    2.04%
    148   134      198.0000   160      196.0000      200.0000   257559    2.04%
    152   137      197.0000   134      196.0000      200.0000   263070    2.04%
Elapsed time = 94.09 sec. (95768.65 ticks, tree = 1.02 MB, solutions = 8)
    157   138    infeasible            196.0000      200.0000   271398    2.04%
    163   138    infeasible            196.0000      200.0000   279554    2.04%
    165   139      199.9083   295      196.0000      200.0000   284281    2.04%
    167   140      199.9876   329      196.0000      200.0000   289893    2.04%
    170   142      200.0000   108      196.0000      200.0000   295448    2.04%
    173   144      200.0000    87      196.0000      200.0000   301095    2.04%
    176   146      199.8716   332      196.0000      200.0000   306863    2.04%
    179   148      200.0000   130      196.0000      200.0000   313781    2.04%
    182   151      200.0000   100      196.0000      200.0000   318605    2.04%
    185   153      200.0000    96      196.0000      200.0000   324364    2.04%
Elapsed time = 105.97 sec. (106951.88 ticks, tree = 1.10 MB, solutions = 8)
    189   155      200.0000    92      196.0000      200.0000   331643    2.04%
    192   157      199.9176   242      196.0000      200.0000   338048    2.04%
    196   160      200.0000    82      196.0000      200.0000   341954    2.04%
    200   163      200.0000   117      196.0000      200.0000   345837    2.04%
    204   167      200.0000   163      196.0000      200.0000   349613    2.04%
    208   169      199.6111   319      196.0000      200.0000   355518    2.04%
    212   172      200.0000   153      196.0000      200.0000   360243    2.04%
    217   176      200.0000   137      196.0000      200.0000   363958    2.04%
    220   179      200.0000   145      196.0000      200.0000   367084    2.04%
    225   182      200.0000   142      196.0000      200.0000   372645    2.04%
Elapsed time = 118.05 sec. (118211.01 ticks, tree = 1.44 MB, solutions = 8)
    228   184      200.0000   131      196.0000      200.0000   378199    2.04%
    231   185      199.9037   214      196.0000      200.0000   384899    2.04%
    236   188      199.0000   160      196.0000      200.0000   389529    2.04%
    241   193      199.0000   162      196.0000      200.0000   392199    2.04%
    247   198      199.0000   151      196.0000      200.0000   394470    2.04%
    252   203      199.0000   160      196.0000      200.0000   397950    2.04%
    258   208      199.0000   160      196.0000      200.0000   402209    2.04%
    263   212      198.6000   153      196.0000      200.0000   406175    2.04%
    269   217      199.0000   250      196.0000      200.0000   410583    2.04%
    275   221      199.0000   220      196.0000      200.0000   413809    2.04%
Elapsed time = 129.36 sec. (128526.83 ticks, tree = 1.90 MB, solutions = 8)
    281   224      198.8579   201      196.0000      200.0000   418631    2.04%
    290   231      197.0000   150      196.0000      200.0000   422343    2.04%
    298   234      198.0000    97      196.0000      200.0000   427858    2.04%
    306   241      197.0000    80      196.0000      200.0000   432147    2.04%
    314   241    infeasible            196.0000      200.0000   439003    2.04%
    317   243      199.9598   324      196.0000      200.0000   443511    2.04%
    320   246      199.0000   289      196.0000      200.0000   444969    2.04%
    324   250      199.0000   176      196.0000      200.0000   448650    2.04%
    328   254      199.0000   156      196.0000      200.0000   452571    2.04%
    343   256    infeasible            196.0000      200.0000   477184    2.04%
Elapsed time = 144.44 sec. (142138.21 ticks, tree = 2.07 MB, solutions = 8)
    360   257      200.0000    96      196.0000      200.0000   500747    2.04%
    385   271      199.9070   241      196.0000      200.0000   518504    2.04%
    407   284      199.9236   180      196.0000      200.0000   539350    2.04%
    430   302      198.0000    82      196.0000      200.0000   555596    2.04%
    452   313      198.0000   155      196.0000      200.0000   575476    2.04%
    469   322      199.0000   317      196.0000      200.0000   597554    2.04%
    487   338      197.0000   192      196.0000      200.0000   609194    2.04%
    513   347      199.9213   231      196.0000      200.0000   633753    2.04%
    540   366      197.0000    82      196.0000      200.0000   648200    2.04%
    561   376      199.0000   124      196.0000      200.0000   665787    2.04%
Elapsed time = 188.94 sec. (181785.62 ticks, tree = 2.31 MB, solutions = 8)
    578   378      200.0000   104      196.0000      200.0000   688778    2.04%
    587   385      200.0000   178      196.0000      200.0000   709696    2.04%
    597   394      200.0000   118      196.0000      200.0000   726355    2.04%
    606   400      200.0000   149      196.0000      200.0000   748205    2.04%
    623   414      199.0000   138      196.0000      200.0000   763842    2.04%
    644   430    infeasible            196.0000      200.0000   780205    2.04%
    678   451    infeasible            196.0000      200.0000   799957    2.04%
    709   459      198.4333   204      196.0000      200.0000   822684    2.04%
    738   481      197.0000    83      196.0000      200.0000   836212    2.04%
    757   491      197.0000   134      196.0000      200.0000   855798    2.04%
Elapsed time = 231.98 sec. (220868.69 ticks, tree = 3.47 MB, solutions = 8)
    784   498      199.0000   218      196.0000      200.0000   877022    2.04%
    808   511      199.8876   202      196.0000      200.0000   893953    2.04%
    835   530      200.0000   113      196.0000      200.0000   909573    2.04%
    846   537      199.9213   232      196.0000      200.0000   932566    2.04%
    860   549      199.0000   113      196.0000      200.0000   950201    2.04%
    884   561      199.9600   330      196.0000      200.0000   970256    2.04%
    907   577      200.0000   124      196.0000      200.0000   984807    2.04%
    927   594      198.9091   167      196.0000      200.0000   997822    2.04%
    957   607    infeasible            196.0000      200.0000  1016661    2.04%
    974   619      199.0000   226      196.0000      200.0000  1030891    2.04%
Elapsed time = 276.38 sec. (261105.55 ticks, tree = 5.02 MB, solutions = 8)
*   986+  507                          197.0000      200.0000             1.52%
    987   510      200.0000    97      197.0000      200.0000  1036529    1.52%
    988   510      199.0000   227      197.0000      200.0000  1039116    1.52%
   1008   523      199.0000   102      197.0000      200.0000  1054577    1.52%
   1034   525      199.0000   120      197.0000      200.0000  1077974    1.52%
   1052   533      198.0000   102      197.0000      200.0000  1096951    1.52%
   1073   544      199.0000   145      197.0000      200.0000  1114416    1.52%
   1092   557      199.0000    96      197.0000      200.0000  1133252    1.52%

Performing restart 1

Repeating presolve.
Tried aggregator 1 time.
MIP Presolve eliminated 0 rows and 197 columns.
MIP Presolve modified 14856 coefficients.
Reduced MIP has 1213 rows, 5003 columns, and 54124 nonzeros.
Reduced MIP has 5003 binaries, 0 generals, 0 SOSs, and 0 indicators.
Presolve time = 0.05 sec. (41.33 ticks)
Tried aggregator 1 time.
Reduced MIP has 1213 rows, 5003 columns, and 54124 nonzeros.
Reduced MIP has 5003 binaries, 0 generals, 0 SOSs, and 0 indicators.
Presolve time = 0.04 sec. (31.06 ticks)
Represolve time = 0.46 sec. (260.05 ticks)
   1096     0      200.0000   233      197.0000       Cuts: 3  1140067    1.52%
   1096     0      200.0000   256      197.0000      Cuts: 14  1141442    1.52%
   1096     0      200.0000   240      197.0000      Cuts: 23  1143252    1.52%
   1096     2      200.0000   155      197.0000      200.0000  1143252    1.52%
   1101     7      200.0000   133      197.0000      200.0000  1155855    1.52%
   1107    13      200.0000   461      197.0000      200.0000  1172776    1.52%
Elapsed time = 361.13 sec. (343660.14 ticks, tree = 0.05 MB, solutions = 9)
   1115    21      200.0000   296      197.0000      200.0000  1190430    1.52%
   1127    33      200.0000   398      197.0000      200.0000  1208555    1.52%
   1139    45      200.0000   321      197.0000      200.0000  1231944    1.52%
   1149    55      200.0000   249      197.0000      200.0000  1251129    1.52%
   1158    64      200.0000   162      197.0000      200.0000  1269460    1.52%
   1166    71      200.0000   186      197.0000      200.0000  1285885    1.52%
   1176    78      200.0000   198      197.0000      200.0000  1306319    1.52%
   1186    85      198.0000   200      197.0000      200.0000  1328266    1.52%
   1196    93      200.0000   129      197.0000      200.0000  1348666    1.52%
   1211   103      200.0000   121      197.0000      200.0000  1370757    1.52%
Elapsed time = 414.24 sec. (395015.71 ticks, tree = 0.32 MB, solutions = 9)
   1236   122      198.0000   142      197.0000      200.0000  1385803    1.52%
   1259   131    infeasible            197.0000      200.0000  1405373    1.52%
   1276   140      200.0000   133      197.0000      200.0000  1417955    1.52%
   1284   147      200.0000   378      197.0000      200.0000  1428439    1.52%
   1296   159      200.0000   347      197.0000      200.0000  1438279    1.52%
   1313   171        cutoff            197.0000      200.0000  1452527    1.52%
   1330   176      200.0000   602      197.0000      200.0000  1465867    1.52%
   1336   182      200.0000   307      197.0000      200.0000  1478615    1.52%
   1348   194      200.0000   250      197.0000      200.0000  1486296    1.52%
   1361   207      200.0000   158      197.0000      200.0000  1495165    1.52%
Elapsed time = 456.37 sec. (435929.08 ticks, tree = 1.54 MB, solutions = 9)
   1376   220      198.0000   179      197.0000      200.0000  1509543    1.52%
   1389   223      198.0000   169      197.0000      200.0000  1532917    1.52%
   1407   235      198.0000   145      197.0000      200.0000  1547560    1.52%
   1422   244      200.0000   605      197.0000      200.0000  1561203    1.52%
   1431   253      200.0000   256      197.0000      200.0000  1569534    1.52%
   1436   258      200.0000   342      197.0000      200.0000  1577057    1.52%
   1445   267      200.0000   305      197.0000      200.0000  1590119    1.52%
   1455   277      200.0000   218      197.0000      200.0000  1603392    1.52%
   1463   285      200.0000   308      197.0000      200.0000  1616573    1.52%
   1473   295      200.0000   282      197.0000      200.0000  1631309    1.52%
Elapsed time = 498.10 sec. (477286.08 ticks, tree = 2.55 MB, solutions = 9)
   1478   300      200.0000   243      197.0000      200.0000  1637968    1.52%
   1490   311      199.7500   330      197.0000      200.0000  1652423    1.52%
   1500   317      200.0000   268      197.0000      200.0000  1668035    1.52%
   1513   330      200.0000   275      197.0000      200.0000  1680141    1.52%
   1527   339    infeasible            197.0000      200.0000  1707743    1.52%
   1546   340      200.0000   222      197.0000      200.0000  1726593    1.52%
   1559   343      200.0000   219      197.0000      200.0000  1748525    1.52%
   1570   345      200.0000    88      197.0000      200.0000  1769274    1.52%
   1576   351      200.0000   408      197.0000      200.0000  1773740    1.52%
   1586   361      200.0000   382      197.0000      200.0000  1782923    1.52%
Elapsed time = 540.42 sec. (518163.66 ticks, tree = 3.14 MB, solutions = 9)
   1593   367      199.0000   418      197.0000      200.0000  1798911    1.52%
Starting limited solution polishing.
   1596   370      199.0000   314      197.0000      200.0000  1800378    1.52%
   1610   381      198.0000    90      197.0000      200.0000  1814580    1.52%
   1620   385      198.0000    78      197.0000      200.0000  1836161    1.52%
   1628   390      200.0000   251      197.0000      200.0000  1848422    1.52%
   1640   401      200.0000   235      197.0000      200.0000  1857465    1.52%
   1652   411      199.7866   404      197.0000      200.0000  1871565    1.52%
   1674   430    infeasible            197.0000      200.0000  1882954    1.52%
   1684   434      200.0000   401      197.0000      200.0000  1896969    1.52%
   1694   444      200.0000   333      197.0000      200.0000  1909705    1.52%
Elapsed time = 592.75 sec. (568981.36 ticks, tree = 4.01 MB, solutions = 9)
   1703   452      199.0000   260      197.0000      200.0000  1921021    1.52%

Clique cuts applied:  8
Zero-half cuts applied:  7

Root node processing (before b&c):
  Real time             =   20.14 sec. (21744.41 ticks)
Sequential b&c:
  Real time             =  579.86 sec. (554364.84 ticks)
                          ------------
Total (root+branch&cut) =  600.00 sec. (576109.25 ticks)
Primal:	197
Dual:	200
Status:	Feasible
Time:	599.94
Sequence:
	21
	8
	14
	10
	16
	7
	13
	14
	7
	12
	14
	9
	10
	14
	7
	23
	0
	18
	12
	14
	7
	21
	1
	20
	10
	14
	7
	23
	2
	18
	10
	14
	7
	19
	5
	18
	7
	3
	20
	7
	3
	18
	7
	6
	7
	18
	3
	18
	9
	5
	18
	7
	3
	18
	9
	14
	7
	18
	3
	18
	8
	14
	12
	7
	14
	8
	18
	5
	18
	7
	15
	10
	16
	7
	18
	3
	19
	7
	5
	7
	18
	4
	18
	7
	16
	7
	21
	1
	18
	12
	15
	7
	12
	14
	7
	13
	14
	7
	21
	1
	20
	10
	14
	7
	12
	15
	7
	21
	1
	18
	10
	15
	7
	10
	16
	7
	21
	1
	19
	12
	14
	7
	10
	14
	9
	18
	5
	18
	7
	17
	7
	18
	5
	7
	20
	3
	18
	1
	21
	8
	14
	12
	7
	16
	11
	7
	14
	10
	18
	2
	21
	7
	14
	10
	18
	0
	21
	7
	14
	12
	9
	14
	10
	7
	14
	12
	18
	2
	21
	7
	16
	10
	8
	16
	7
	21
	1
	19
	10
	16
	7
	21
	1
	19
	10
	16
	7
	21
	2
	18
	10
	14
	7
	23
	1
	18
	3
